p cnf 60 30
32 -23 -46 0
35 -50 -11 0
-56 4 -27 0
31 40 46 0
-26 43 18 0
9 -25 17 0
-60 30 -2 0
-39 26 -10 0
56 -33 -4 0
58 -12 -26 0
17 -29 -3 0
3 13 -7 0
-31 -43 -22 0
13 -53 48 0
7 55 -15 0
36 55 37 0
-56 25 47 0
9 -47 -41 0
56 22 -49 0
-48 9 27 0
54 -7 39 0
11 38 -27 0
19 -33 -3 0
-4 23 -38 0
43 12 29 0
48 -34 -16 0
-18 -13 56 0
-15 49 40 0
-14 -20 49 0
15 45 47 0
